211 5
10 10 10 10 10 

0 0 0 0 0 0 1 2 
0 0 0 0 0 0 2 3 6 
4 0 1 0 0 0 1 4 
10 0 2 0 0 0 2 11 5 
4 0 1 0 0 0 2 12 7 
5 0 5 0 0 0 2 11 8 
6 0 4 0 0 0 1 8 
8 0 2 0 0 0 1 9 
8 0 2 0 0 0 1 10 
2 0 2 0 0 0 1 13 
2 0 2 0 0 0 1 13 
10 0 4 0 0 0 1 13 
0 0 0 0 0 0 2 14 36 
0 0 0 0 0 0 2 15 17 
1 0 1 0 0 1 2 20 16 
7 0 3 0 0 3 1 18 
7 0 4 0 0 4 1 18 
7 0 2 0 0 2 1 19 
2 0 1 0 0 2 1 21 
7 0 1 0 0 1 1 21 
2 0 2 0 0 3 1 22 
10 0 2 0 0 2 2 25 23 
2 0 3 0 0 2 1 24 
2 0 5 0 0 1 2 31 26 
8 0 2 0 0 1 1 26 
5 0 3 0 0 3 1 27 
1 0 4 0 0 2 2 34 28 
2 0 3 0 0 2 1 29 
9 0 3 0 0 2 1 30 
9 0 2 0 0 5 1 32 
3 0 3 0 0 4 1 32 
10 0 1 0 0 2 1 33 
9 0 2 0 0 5 1 35 
10 0 3 0 0 3 1 35 
0 0 0 0 0 0 1 72 
0 0 0 0 0 0 2 37 43 
3 1 0 0 0 0 1 38 
7 3 0 0 0 0 2 46 39 
9 4 0 0 0 0 2 45 40 
10 2 0 0 0 0 1 41 
8 2 0 0 0 0 1 42 
4 3 0 0 0 0 1 44 
9 4 0 0 0 0 1 44 
3 3 0 0 0 0 1 47 
5 2 0 0 0 0 1 47 
9 1 0 0 0 0 1 47 
0 0 0 0 0 0 2 48 60 
0 0 0 0 0 0 1 49 
9 0 0 0 1 0 2 51 50 
3 0 0 0 2 0 3 56 55 53 
7 0 0 0 3 0 1 52 
5 0 0 0 2 0 2 55 53 
2 0 0 0 4 0 1 54 
5 0 0 0 1 0 1 57 
3 0 0 0 2 0 1 57 
10 0 0 0 3 0 1 57 
6 0 0 0 4 0 1 58 
2 0 0 0 3 0 1 59 
0 0 0 0 0 0 1 72 
0 0 0 0 0 0 2 61 62 
9 0 0 1 0 0 1 63 
4 0 0 4 0 0 1 63 
5 0 0 2 0 0 2 65 64 
4 0 0 2 0 0 2 70 66 
1 0 0 1 0 0 1 66 
6 0 0 1 0 0 1 67 
3 0 0 2 0 0 1 68 
4 0 0 6 0 0 1 69 
2 0 0 4 0 0 1 71 
3 0 0 2 0 0 1 71 
0 0 0 0 0 0 1 72 
0 0 0 0 0 0 4 73 85 107 129 
0 0 0 0 0 0 3 74 79 80 
7 0 1 0 0 0 1 75 
7 0 2 0 0 0 1 76 
1 0 3 0 0 0 2 83 77 
10 0 2 0 0 0 1 78 
2 0 4 0 0 0 1 81 
6 0 1 0 0 0 1 81 
5 0 2 0 0 0 1 81 
5 0 2 0 0 0 1 82 
5 0 5 0 0 0 1 84 
1 0 3 0 0 0 1 84 
0 0 0 0 0 0 5 151 163 175 187 199 
0 0 0 0 0 0 3 86 99 105 
6 0 0 0 1 1 1 87 
3 0 0 0 2 4 2 95 88 
2 0 0 0 2 1 2 104 89 
7 0 0 0 6 2 1 90 
1 0 0 0 3 2 1 91 
5 0 0 0 1 2 2 103 92 
4 0 0 0 4 1 1 93 
10 0 0 0 2 1 1 94 
6 0 0 0 1 4 1 96 
2 0 0 0 2 2 1 96 
4 0 0 0 1 3 1 97 
8 0 0 0 3 1 1 98 
6 0 0 0 1 1 1 100 
2 0 0 0 4 3 1 100 
6 0 0 0 2 4 1 101 
3 0 0 0 2 8 1 102 
6 0 0 0 3 2 1 106 
3 0 0 0 1 2 1 106 
6 0 0 0 6 3 1 106 
1 0 0 0 3 3 1 106 
0 0 0 0 0 0 1 211 
0 0 0 0 0 0 2 108 111 
10 0 1 0 0 1 1 109 
9 0 2 0 0 3 2 120 110 
8 0 3 0 0 3 3 125 115 112 
7 0 5 0 0 1 3 125 115 113 
6 0 3 0 0 3 1 113 
9 0 2 0 0 3 1 114 
7 0 2 0 0 3 1 116 
5 0 1 0 0 2 1 116 
6 0 4 0 0 2 1 117 
8 0 2 0 0 2 1 118 
3 0 2 0 0 3 1 119 
7 0 2 0 0 1 2 127 121 
5 0 3 0 0 6 2 127 121 
1 0 4 0 0 2 1 122 
9 0 3 0 0 4 1 123 
3 0 1 0 0 2 1 124 
1 0 2 0 0 3 1 126 
9 0 1 0 0 2 1 126 
2 0 2 0 0 2 1 128 
2 0 5 0 0 2 1 128 
0 0 0 0 0 0 1 211 
0 0 0 0 0 0 3 130 138 139 
3 0 0 1 0 1 1 131 
8 0 0 3 0 4 1 132 
8 0 0 2 0 2 1 133 
9 0 0 2 0 1 1 134 
1 0 0 3 0 4 2 147 135 
1 0 0 1 0 1 1 136 
8 0 0 4 0 3 1 137 
3 0 0 2 0 2 2 149 140 
6 0 0 2 0 2 2 149 142 
7 0 0 2 0 3 2 145 142 
5 0 0 1 0 3 1 141 
5 0 0 1 0 2 1 142 
4 0 0 4 0 3 1 143 
7 0 0 5 0 4 1 144 
3 0 0 1 0 2 1 146 
1 0 0 3 0 2 1 146 
8 0 0 2 0 4 1 148 
1 0 0 4 0 3 1 148 
8 0 0 3 0 3 1 150 
6 0 0 4 0 1 1 150 
0 0 0 0 0 0 1 211 
0 0 0 0 0 0 2 152 153 
1 1 0 0 0 0 1 154 
8 2 0 0 0 0 1 154 
2 2 0 0 0 0 1 155 
8 1 0 0 0 0 2 158 156 
10 4 0 0 0 0 1 157 
6 4 0 0 0 0 2 161 159 
3 3 0 0 0 0 2 161 159 
5 5 0 0 0 0 1 160 
4 1 0 0 0 0 1 162 
3 2 0 0 0 0 1 162 
0 0 0 0 0 0 1 211 
0 0 0 0 0 0 1 164 
4 1 0 0 0 0 2 168 165 
6 2 0 0 0 0 1 166 
3 2 0 0 0 0 1 167 
8 4 0 0 0 0 2 172 169 
10 3 0 0 0 0 1 169 
9 2 0 0 0 0 2 171 170 
4 2 0 0 0 0 1 173 
7 1 0 0 0 0 1 173 
7 2 0 0 0 0 1 173 
1 6 0 0 0 0 1 174 
0 0 0 0 0 0 1 211 
0 0 0 0 0 0 1 176 
6 0 0 0 0 1 3 182 179 177 
1 0 0 0 0 3 1 178 
9 0 0 0 0 3 2 184 180 
9 0 0 0 0 2 2 184 183 
7 0 0 0 0 3 1 181 
10 0 0 0 0 2 1 183 
4 0 0 0 0 5 1 183 
1 0 0 0 0 2 1 185 
7 0 0 0 0 1 1 185 
8 0 0 0 0 3 1 186 
0 0 0 0 0 0 1 211 
0 0 0 0 0 0 1 188 
10 0 0 1 0 0 2 190 189 
5 0 0 1 0 0 2 194 191 
5 0 0 2 0 0 2 194 192 
8 0 0 3 0 0 1 192 
4 0 0 3 0 0 1 193 
9 0 0 5 0 0 2 197 195 
10 0 0 2 0 0 2 197 195 
7 0 0 2 0 0 1 196 
10 0 0 2 0 0 1 198 
9 0 0 4 0 0 1 198 
0 0 0 0 0 0 1 211 
0 0 0 0 0 0 3 200 206 208 
9 0 0 1 0 0 2 204 201 
8 0 0 6 0 0 1 202 
5 0 0 1 0 0 1 203 
10 0 0 4 0 0 1 205 
6 0 0 1 0 0 1 205 
4 0 0 2 0 0 1 207 
8 0 0 1 0 0 1 207 
9 0 0 2 0 0 1 209 
10 0 0 3 0 0 1 209 
6 0 0 4 0 0 1 210 
0 0 0 0 0 0 1 211 
0 0 0 0 0 0 0 
